CPXPARAM_Read_DataCheck                          1
Found incumbent of value 0.000000 after 0.00 sec. (0.08 ticks)
Tried aggregator 1 time.
MIP Presolve modified 1 coefficients.
Reduced MIP has 246 rows, 3015 columns, and 15060 nonzeros.
Reduced MIP has 3015 binaries, 0 generals, 0 SOSs, and 0 indicators.
Presolve time = 0.02 sec. (5.69 ticks)
Tried aggregator 1 time.
Reduced MIP has 246 rows, 3015 columns, and 15060 nonzeros.
Reduced MIP has 3015 binaries, 0 generals, 0 SOSs, and 0 indicators.
Presolve time = 0.00 sec. (6.74 ticks)
Probing time = 0.00 sec. (1.99 ticks)
Clique table members: 5298.
MIP emphasis: balance optimality and feasibility.
MIP search method: dynamic search.
Parallel mode: deterministic, using up to 4 threads.
Root relaxation solution time = 0.01 sec. (11.77 ticks)

        Nodes                                         Cuts/
   Node  Left     Objective  IInf  Best Integer    Best Bound    ItCnt     Gap

*     0+    0                            0.0000    18619.0000              --- 
      0     0     3771.5372    14        0.0000     3771.5372      453     --- 
      0     0     3564.7050   225        0.0000     Cuts: 161      726     --- 
*     0+    0                         3364.0000     3564.7050             5.97%
      0     0     3481.1678   352     3364.0000     Cuts: 161     1076    3.48%
      0     0     3451.4301   388     3364.0000     Cuts: 161     1380    2.60%
*     0+    0                         3375.0000     3451.4301             2.26%
      0     0     3441.7564   470     3375.0000      Cuts: 72     1541    1.98%
*     0+    0                         3435.0000     3441.7564             0.20%
      0     0        cutoff           3435.0000     3435.0000     1614    0.00%
Elapsed time = 1.69 sec. (916.01 ticks, tree = 0.01 MB, solutions = 4)

Clique cuts applied:  396
Cover cuts applied:  28
Flow cuts applied:  2
Mixed integer rounding cuts applied:  23
Zero-half cuts applied:  6

Root node processing (before b&c):
  Real time             =    1.69 sec. (916.25 ticks)
Parallel b&c, 4 threads:
  Real time             =    0.00 sec. (0.00 ticks)
  Sync time (average)   =    0.00 sec.
  Wait time (average)   =    0.00 sec.
                          ------------
Total (root+branch&cut) =    1.69 sec. (916.25 ticks)
